5 5
2 43 1 51 3 72 0 25 4 80
1 35 2 17 0 18 4 27 3 15
4 81 2 69 1 80 0 15 3 42
1 34 2 48 3 83 4 8 0 10
4 5 0 48 2 26 1 86 3 23
-1
0 1 3 4 5
0 2 5
0 4 5
0 3 5
0 2 3 4 5
-2
48 213 206 335
60 156
261 412
234 289
59 86 188 246

346 7
7 21 3 13 19
5 1 15 12 23
0 6 11 16 22
2 9 17 14 24
10 20 8 4 18
